NAME : Euclidean Random Tour : n = 100, sample = 23 
COMMENT : Coordinates are generated uniformly sampled from [0, 100000] x [0, 100000] 
DIMENSION : 100 
EDGE_WEIGHT_TYPE : EUC_2D 
TOUR_SECTION 
1
61
25
67
72
42
30
48
66
20
53
57
46
98
63
81
74
16
89
3
62
36
54
23
18
27
40
33
39
86
55
28
78
99
95
9
77
91
60
56
21
15
64
82
37
84
90
11
32
96
10
71
19
52
76
29
43
22
8
17
88
41
34
65
47
45
87
97
80
12
85
5
31
92
93
51
13
14
79
38
100
49
2
44
26
7
6
35
58
69
68
70
73
4
83
75
59
24
50
94
-1
